presolving:
(round 1, fast)       490 del vars, 3690 del conss, 0 add conss, 64060 chg bounds, 0 chg sides, 3200 chg coeffs, 0 upgd conss, 0 impls, 0 clqs
   (0.4s) running MILP presolver
   (0.5s) MILP presolver (2 rounds): 0 aggregations, 0 fixings, 50 bound changes
   (0.7s) sparsify finished: 32000/169600 (18.9%) nonzeros canceled - in total 32000 canceled nonzeros, 35200 changed coefficients, 0 added nonzeros
(round 2, exhaustive) 490 del vars, 3690 del conss, 0 add conss, 64160 chg bounds, 0 chg sides, 38400 chg coeffs, 0 upgd conss, 0 impls, 0 clqs
(round 3, fast)       490 del vars, 6890 del conss, 0 add conss, 64160 chg bounds, 0 chg sides, 38400 chg coeffs, 0 upgd conss, 0 impls, 0 clqs
   (0.8s) running MILP presolver
   (0.8s) MILP presolver found nothing
   (1.0s) probing cycle finished: starting next cycle
   (1.0s) symmetry computation started: requiring (bin +, int -, cont +), (fixed: bin -, int +, cont -)
   (1.1s) no symmetry present
presolving (4 rounds: 4 fast, 2 medium, 2 exhaustive):
 490 deleted vars, 6890 deleted constraints, 0 added constraints, 64160 tightened bounds, 0 added holes, 0 changed sides, 38400 changed coefficients
 32050 implications, 0 cliques
presolved problem has 32100 variables (50 bin, 0 int, 0 impl, 32050 cont) and 6474 constraints
   6474 constraints of type <linear>
Presolving Time: 1.03

 time | node  | left  |LP iter|LP it/n|mem/heur|mdpt |vars |cons |rows |cuts |sepa|confs|strbr|  dualbound   | primalbound  |  gap   | compl. 
p 1.4s|     1 |     0 |   371 |     - |shiftand|   0 |  32k|6476 |6474 |   0 |  0 |   2 |   0 | 2.405000e+02 | 2.257096e+06 |  Large | unknown
  5.2s|     1 |     0 |  8695 |     - |   265M |   0 |  32k|6476 |6474 |   0 |  0 |   2 |   0 | 1.478534e+06 | 2.257096e+06 |  52.66%| unknown
  5.8s|     1 |     0 |  9472 |     - |   268M |   0 |  32k|6476 |6481 |   7 |  1 |   2 |   0 | 1.547640e+06 | 2.257096e+06 |  45.84%| unknown
  6.1s|     1 |     0 |  9773 |     - |   269M |   0 |  32k|6476 |6488 |  14 |  2 |   2 |   0 | 1.558763e+06 | 2.257096e+06 |  44.80%| unknown
  6.6s|     1 |     0 | 10347 |     - |   269M |   0 |  32k|6476 |6492 |  18 |  3 |   2 |   0 | 1.568726e+06 | 2.257096e+06 |  43.88%| unknown
  6.9s|     1 |     0 | 10610 |     - |   271M |   0 |  32k|6476 |6495 |  21 |  4 |   2 |   0 | 1.601570e+06 | 2.257096e+06 |  40.93%| unknown
  7.1s|     1 |     0 | 10790 |     - |   272M |   0 |  32k|6476 |6501 |  27 |  5 |   2 |   0 | 1.613153e+06 | 2.257096e+06 |  39.92%| unknown
  7.4s|     1 |     0 | 10849 |     - |   273M |   0 |  32k|6476 |6502 |  28 |  6 |   2 |   0 | 1.614035e+06 | 2.257096e+06 |  39.84%| unknown
  8.0s|     1 |     0 | 11478 |     - |   274M |   0 |  32k|6476 |6507 |  33 |  7 |   2 |   0 | 1.635651e+06 | 2.257096e+06 |  37.99%| unknown
  8.5s|     1 |     0 | 11829 |     - |   275M |   0 |  32k|6476 |6511 |  37 |  8 |   2 |   0 | 1.642275e+06 | 2.257096e+06 |  37.44%| unknown
  9.0s|     1 |     0 | 12322 |     - |   277M |   0 |  32k|6476 |6515 |  41 |  9 |   2 |   0 | 1.644114e+06 | 2.257096e+06 |  37.28%| unknown
  9.4s|     1 |     0 | 12533 |     - |   278M |   0 |  32k|6476 |6517 |  43 | 10 |   2 |   0 | 1.654131e+06 | 2.257096e+06 |  36.45%| unknown
 10.0s|     1 |     0 | 12964 |     - |   279M |   0 |  32k|6476 |6521 |  47 | 11 |   2 |   0 | 1.657248e+06 | 2.257096e+06 |  36.20%| unknown
 10.4s|     1 |     0 | 13220 |     - |   280M |   0 |  32k|6476 |6524 |  50 | 12 |   2 |   0 | 1.657496e+06 | 2.257096e+06 |  36.18%| unknown
 11.0s|     1 |     0 | 13736 |     - |   281M |   0 |  32k|6476 |6527 |  53 | 13 |   2 |   0 | 1.658859e+06 | 2.257096e+06 |  36.06%| unknown
 time | node  | left  |LP iter|LP it/n|mem/heur|mdpt |vars |cons |rows |cuts |sepa|confs|strbr|  dualbound   | primalbound  |  gap   | compl. 
 11.3s|     1 |     0 | 13897 |     - |   282M |   0 |  32k|6476 |6529 |  55 | 14 |   2 |   0 | 1.658879e+06 | 2.257096e+06 |  36.06%| unknown
 11.7s|     1 |     0 | 14035 |     - |   284M |   0 |  32k|6476 |6530 |  57 | 15 |   2 |   0 | 1.658879e+06 | 2.257096e+06 |  36.06%| unknown
 12.0s|     1 |     0 | 14166 |     - |   288M |   0 |  32k|6476 |6532 |  59 | 16 |   2 |   0 | 1.658879e+06 | 2.257096e+06 |  36.06%| unknown
 12.5s|     1 |     0 | 14318 |     - |   288M |   0 |  32k|6476 |6534 |  61 | 17 |   2 |   0 | 1.658879e+06 | 2.257096e+06 |  36.06%| unknown
 12.9s|     1 |     0 | 14527 |     - |   290M |   0 |  32k|6476 |6536 |  63 | 18 |   2 |   0 | 1.658879e+06 | 2.257096e+06 |  36.06%| unknown
 13.3s|     1 |     0 | 14674 |     - |   291M |   0 |  32k|6476 |6538 |  65 | 19 |   2 |   0 | 1.658879e+06 | 2.257096e+06 |  36.06%| unknown
 13.8s|     1 |     0 | 14881 |     - |   292M |   0 |  32k|6476 |6540 |  67 | 20 |   2 |   0 | 1.658880e+06 | 2.257096e+06 |  36.06%| unknown
 14.4s|     1 |     0 | 15385 |     - |   293M |   0 |  32k|6476 |6539 |  69 | 21 |   2 |   0 | 1.659217e+06 | 2.257096e+06 |  36.03%| unknown
 14.9s|     1 |     0 | 15604 |     - |   294M |   0 |  32k|6476 |6541 |  71 | 22 |   2 |   0 | 1.659405e+06 | 2.257096e+06 |  36.02%| unknown
 15.4s|     1 |     0 | 15884 |     - |   295M |   0 |  32k|6476 |6543 |  73 | 23 |   2 |   0 | 1.659671e+06 | 2.257096e+06 |  36.00%| unknown
 15.9s|     1 |     0 | 16182 |     - |   297M |   0 |  32k|6476 |6546 |  76 | 24 |   2 |   0 | 1.660022e+06 | 2.257096e+06 |  35.97%| unknown
 16.5s|     1 |     0 | 16581 |     - |   298M |   0 |  32k|6476 |6548 |  78 | 25 |   2 |   0 | 1.660036e+06 | 2.257096e+06 |  35.97%| unknown
 17.1s|     1 |     0 | 16879 |     - |   298M |   0 |  32k|6476 |6550 |  80 | 26 |   2 |   0 | 1.660187e+06 | 2.257096e+06 |  35.95%| unknown
 17.7s|     1 |     0 | 17347 |     - |   301M |   0 |  32k|6476 |6554 |  84 | 27 |   2 |   0 | 1.661620e+06 | 2.257096e+06 |  35.84%| unknown
 18.9s|     1 |     0 | 18851 |     - |   302M |   0 |  32k|6476 |6556 |  86 | 28 |   2 |   0 | 1.666541e+06 | 2.257096e+06 |  35.44%| unknown
 time | node  | left  |LP iter|LP it/n|mem/heur|mdpt |vars |cons |rows |cuts |sepa|confs|strbr|  dualbound   | primalbound  |  gap   | compl. 
 19.9s|     1 |     0 | 19817 |     - |   304M |   0 |  32k|6476 |6560 |  90 | 29 |   2 |   0 | 1.671806e+06 | 2.257096e+06 |  35.01%| unknown
 20.6s|     1 |     0 | 20269 |     - |   304M |   0 |  32k|6476 |6563 |  93 | 30 |   2 |   0 | 1.672742e+06 | 2.257096e+06 |  34.93%| unknown
 21.1s|     1 |     0 | 20559 |     - |   305M |   0 |  32k|6476 |6565 |  95 | 31 |   2 |   0 | 1.672930e+06 | 2.257096e+06 |  34.92%| unknown
 21.7s|     1 |     0 | 20978 |     - |   308M |   0 |  32k|6476 |6567 |  97 | 32 |   2 |   0 | 1.673270e+06 | 2.257096e+06 |  34.89%| unknown
 22.5s|     1 |     0 | 21494 |     - |   309M |   0 |  32k|6476 |6566 |  99 | 33 |   2 |   0 | 1.674985e+06 | 2.257096e+06 |  34.75%| unknown
 23.1s|     1 |     0 | 21745 |     - |   309M |   0 |  32k|6476 |6568 | 101 | 34 |   2 |   0 | 1.675696e+06 | 2.257096e+06 |  34.70%| unknown
 23.6s|     1 |     0 | 21912 |     - |   311M |   0 |  32k|6476 |6570 | 103 | 35 |   2 |   0 | 1.676719e+06 | 2.257096e+06 |  34.61%| unknown
 24.0s|     1 |     0 | 21979 |     - |   312M |   0 |  32k|6476 |6572 | 105 | 36 |   2 |   0 | 1.676719e+06 | 2.257096e+06 |  34.61%| unknown
 24.5s|     1 |     0 | 22103 |     - |   312M |   0 |  32k|6476 |6574 | 107 | 37 |   2 |   0 | 1.677230e+06 | 2.257096e+06 |  34.57%| unknown
 24.9s|     1 |     0 | 22238 |     - |   313M |   0 |  32k|6476 |6576 | 109 | 38 |   2 |   0 | 1.678361e+06 | 2.257096e+06 |  34.48%| unknown
 25.4s|     1 |     0 | 22450 |     - |   317M |   0 |  32k|6476 |6559 | 111 | 39 |   2 |   0 | 1.678443e+06 | 2.257096e+06 |  34.48%| unknown
 26.1s|     1 |     0 | 22903 |     - |   318M |   0 |  32k|6476 |6562 | 114 | 40 |   2 |   0 | 1.679741e+06 | 2.257096e+06 |  34.37%| unknown
 26.8s|     1 |     0 | 23255 |     - |   319M |   0 |  32k|6476 |6565 | 117 | 41 |   2 |   0 | 1.680864e+06 | 2.257096e+06 |  34.28%| unknown
 27.2s|     1 |     0 | 23345 |     - |   321M |   0 |  32k|6476 |6568 | 120 | 42 |   2 |   0 | 1.680864e+06 | 2.257096e+06 |  34.28%| unknown
 27.7s|     1 |     0 | 23409 |     - |   321M |   0 |  32k|6476 |6570 | 122 | 43 |   2 |   0 | 1.680864e+06 | 2.257096e+06 |  34.28%| unknown
 time | node  | left  |LP iter|LP it/n|mem/heur|mdpt |vars |cons |rows |cuts |sepa|confs|strbr|  dualbound   | primalbound  |  gap   | compl. 
 28.1s|     1 |     0 | 23467 |     - |   321M |   0 |  32k|6476 |6572 | 124 | 44 |   2 |   0 | 1.680864e+06 | 2.257096e+06 |  34.28%| unknown
 28.6s|     1 |     0 | 23542 |     - |   322M |   0 |  32k|6476 |6552 | 126 | 45 |   2 |   0 | 1.680864e+06 | 2.257096e+06 |  34.28%| unknown
 29.0s|     1 |     0 | 23621 |     - |   324M |   0 |  32k|6476 |6554 | 128 | 46 |   2 |   0 | 1.680864e+06 | 2.257096e+06 |  34.28%| unknown
 29.5s|     1 |     0 | 23700 |     - |   325M |   0 |  32k|6476 |6556 | 130 | 47 |   2 |   0 | 1.680864e+06 | 2.257096e+06 |  34.28%| unknown
 30.2s|     1 |     0 | 24047 |     - |   326M |   0 |  32k|6476 |6559 | 133 | 48 |   2 |   0 | 1.680962e+06 | 2.257096e+06 |  34.27%| unknown
 30.7s|     1 |     0 | 24166 |     - |   327M |   0 |  32k|6476 |6562 | 136 | 49 |   2 |   0 | 1.681034e+06 | 2.257096e+06 |  34.27%| unknown
 31.1s|     1 |     0 | 24245 |     - |   328M |   0 |  32k|6476 |6564 | 138 | 50 |   2 |   0 | 1.681034e+06 | 2.257096e+06 |  34.27%| unknown
 31.5s|     1 |     0 | 24335 |     - |   328M |   0 |  32k|6476 |6557 | 140 | 51 |   2 |   0 | 1.681034e+06 | 2.257096e+06 |  34.27%| unknown
o36.0s|     1 |     0 | 35429 |     - |feaspump|   0 |  32k|6476 |6557 | 140 | 51 |   2 |   0 | 1.681034e+06 | 1.826399e+06 |   8.65%| unknown
 40.2s|     1 |     0 | 38911 |     - |   336M |   0 |  32k|6476 |6557 | 140 | 51 |  12 |   0 | 1.681034e+06 | 1.826399e+06 |   8.65%| unknown
 40.7s|     1 |     0 | 38995 |     - |   336M |   0 |  32k|6476 |6559 | 142 | 52 |  12 |   0 | 1.681034e+06 | 1.826399e+06 |   8.65%| unknown
 41.8s|     1 |     0 | 40906 |     - |   337M |   0 |  32k|6476 |6562 | 145 | 53 |  12 |   0 | 1.693016e+06 | 1.826399e+06 |   7.88%| unknown
 45.4s|     1 |     0 | 42369 |     - |   339M |   0 |  32k|6476 |6562 | 145 | 53 |  76 |  10 | 1.705658e+06 | 1.826399e+06 |   7.08%| unknown
 45.7s|     1 |     0 | 42517 |     - |   340M |   0 |  32k|6476 |6565 | 148 | 54 |  76 |  10 | 1.705658e+06 | 1.826399e+06 |   7.08%| unknown
 46.0s|     1 |     0 | 42838 |     - |   340M |   0 |  32k|6476 |6567 | 150 | 55 |  76 |  10 | 1.705987e+06 | 1.826399e+06 |   7.06%| unknown
 time | node  | left  |LP iter|LP it/n|mem/heur|mdpt |vars |cons |rows |cuts |sepa|confs|strbr|  dualbound   | primalbound  |  gap   | compl. 
 46.0s|     1 |     0 | 42838 |     - |   341M |   0 |  32k|6476 |6567 | 150 | 55 |  76 |  10 | 1.705987e+06 | 1.826399e+06 |   7.06%| unknown
 46.0s|     1 |     0 | 42838 |     - |   341M |   0 |  32k|6348 |6567 | 150 | 55 |  76 |  10 | 1.705987e+06 | 1.826399e+06 |   7.06%| unknown
 46.4s|     1 |     0 | 43103 |     - |   343M |   0 |  32k|6348 |6561 | 152 | 56 |  76 |  10 | 1.706988e+06 | 1.826399e+06 |   7.00%| unknown
 46.5s|     1 |     0 | 43130 |     - |   343M |   0 |  32k|6348 |6562 | 153 | 57 |  76 |  10 | 1.706988e+06 | 1.826399e+06 |   7.00%| unknown
(run 1, node 1) restarting after 6 global fixings of integer variables

(restart) converted 88 cuts from the global cut pool into linear constraints

presolving:
(round 1, fast)       3852 del vars, 640 del conss, 0 add conss, 3205 chg bounds, 0 chg sides, 0 chg coeffs, 0 upgd conss, 32050 impls, 1 clqs
(round 2, fast)       3852 del vars, 645 del conss, 0 add conss, 3205 chg bounds, 0 chg sides, 0 chg coeffs, 0 upgd conss, 32050 impls, 1 clqs
presolving (3 rounds: 3 fast, 1 medium, 1 exhaustive):
 3852 deleted vars, 646 deleted constraints, 0 added constraints, 3205 tightened bounds, 0 added holes, 0 changed sides, 0 changed coefficients
 32050 implications, 1 cliques
presolved problem has 28248 variables (44 bin, 0 int, 0 impl, 28204 cont) and 5790 constraints
      1 constraints of type <setppc>
   5789 constraints of type <linear>
Presolving Time: 1.16
transformed 2/3 original solutions to the transformed problem space

 time | node  | left  |LP iter|LP it/n|mem/heur|mdpt |vars |cons |rows |cuts |sepa|confs|strbr|  dualbound   | primalbound  |  gap   | compl. 
 50.8s|     1 |     0 | 55205 |     - |   325M |   0 |  28k|5790 |5789 |   0 |  0 |  76 |  10 | 1.706988e+06 | 1.826399e+06 |   7.00%| unknown
 51.4s|     1 |     0 | 55397 |     - |   328M |   0 |  28k|5790 |5792 |   3 |  1 |  76 |  10 | 1.707085e+06 | 1.826399e+06 |   6.99%| unknown
 51.7s|     1 |     0 | 55519 |     - |   328M |   0 |  28k|5790 |5795 |   6 |  2 |  76 |  10 | 1.707432e+06 | 1.826399e+06 |   6.97%| unknown
 52.1s|     1 |     0 | 55725 |     - |   329M |   0 |  28k|5790 |5799 |  10 |  3 |  76 |  10 | 1.707543e+06 | 1.826399e+06 |   6.96%| unknown
 52.4s|     1 |     0 | 55904 |     - |   329M |   0 |  28k|5790 |5801 |  12 |  4 |  76 |  10 | 1.707870e+06 | 1.826399e+06 |   6.94%| unknown
 52.8s|     1 |     0 | 56096 |     - |   330M |   0 |  28k|5790 |5804 |  15 |  5 |  76 |  10 | 1.708146e+06 | 1.826399e+06 |   6.92%| unknown
 53.2s|     1 |     0 | 56179 |     - |   330M |   0 |  28k|5790 |5807 |  18 |  6 |  76 |  10 | 1.708232e+06 | 1.826399e+06 |   6.92%| unknown
 53.6s|     1 |     0 | 56307 |     - |   331M |   0 |  28k|5790 |5810 |  21 |  7 |  76 |  10 | 1.708292e+06 | 1.826399e+06 |   6.91%| unknown
 54.0s|     1 |     0 | 56536 |     - |   333M |   0 |  28k|5790 |5813 |  24 |  8 |  76 |  10 | 1.708292e+06 | 1.826399e+06 |   6.91%| unknown
 54.5s|     1 |     0 | 56809 |     - |   334M |   0 |  28k|5790 |5816 |  27 |  9 |  76 |  10 | 1.708301e+06 | 1.826399e+06 |   6.91%| unknown
 54.9s|     1 |     0 | 56944 |     - |   334M |   0 |  28k|5790 |5787 |  30 | 10 |  76 |  10 | 1.708301e+06 | 1.826399e+06 |   6.91%| unknown
 55.3s|     1 |     0 | 57269 |     - |   337M |   0 |  28k|5790 |5790 |  33 | 11 |  76 |  10 | 1.708900e+06 | 1.826399e+06 |   6.88%| unknown
 55.6s|     1 |     0 | 57393 |     - |   338M |   0 |  28k|5790 |5792 |  35 | 12 |  76 |  10 | 1.708900e+06 | 1.826399e+06 |   6.88%| unknown
 56.0s|     1 |     0 | 57501 |     - |   338M |   0 |  28k|5790 |5795 |  38 | 13 |  76 |  10 | 1.708900e+06 | 1.826399e+06 |   6.88%| unknown
 56.4s|     1 |     0 | 57757 |     - |   338M |   0 |  28k|5790 |5798 |  41 | 14 |  76 |  10 | 1.709023e+06 | 1.826399e+06 |   6.87%| unknown
 time | node  | left  |LP iter|LP it/n|mem/heur|mdpt |vars |cons |rows |cuts |sepa|confs|strbr|  dualbound   | primalbound  |  gap   | compl. 
 56.8s|     1 |     0 | 57899 |     - |   339M |   0 |  28k|5790 |5800 |  43 | 15 |  76 |  10 | 1.709128e+06 | 1.826399e+06 |   6.86%| unknown
 57.4s|     1 |     0 | 58537 |     - |   339M |   0 |  28k|5790 |5797 |  46 | 16 |  76 |  10 | 1.710286e+06 | 1.826399e+06 |   6.79%| unknown
 57.7s|     1 |     0 | 58692 |     - |   340M |   0 |  28k|5790 |5800 |  49 | 17 |  76 |  10 | 1.710307e+06 | 1.826399e+06 |   6.79%| unknown
 58.1s|     1 |     0 | 58783 |     - |   340M |   0 |  28k|5790 |5801 |  50 | 18 |  76 |  10 | 1.710307e+06 | 1.826399e+06 |   6.79%| unknown
 58.4s|     1 |     0 | 58889 |     - |   340M |   0 |  28k|5790 |5802 |  51 | 19 |  76 |  10 | 1.710307e+06 | 1.826399e+06 |   6.79%| unknown
 58.7s|     1 |     0 | 58963 |     - |   343M |   0 |  28k|5790 |5803 |  52 | 20 |  76 |  10 | 1.710307e+06 | 1.826399e+06 |   6.79%| unknown
 59.1s|     1 |     0 | 59103 |     - |   343M |   0 |  28k|5790 |5805 |  54 | 21 |  76 |  10 | 1.710307e+06 | 1.826399e+06 |   6.79%| unknown
 59.4s|     1 |     0 | 59201 |     - |   343M |   0 |  28k|5790 |5785 |  55 | 22 |  76 |  10 | 1.710307e+06 | 1.826399e+06 |   6.79%| unknown
 59.7s|     1 |     0 | 59296 |     - |   345M |   0 |  28k|5790 |5786 |  56 | 23 |  76 |  10 | 1.710307e+06 | 1.826399e+06 |   6.79%| unknown
 60.0s|     1 |     0 | 59415 |     - |   345M |   0 |  28k|5790 |5788 |  58 | 24 |  76 |  10 | 1.710309e+06 | 1.826399e+06 |   6.79%| unknown
 60.3s|     1 |     0 | 59494 |     - |   345M |   0 |  28k|5790 |5789 |  59 | 25 |  76 |  10 | 1.710309e+06 | 1.826399e+06 |   6.79%| unknown
 60.6s|     1 |     0 | 59616 |     - |   345M |   0 |  28k|5790 |5790 |  60 | 26 |  76 |  10 | 1.710309e+06 | 1.826399e+06 |   6.79%| unknown
 66.6s|     1 |     0 | 67338 |     - |   346M |   0 |  28k|5791 |5790 |  60 | 26 | 152 |  14 | 1.722953e+06 | 1.826399e+06 |   6.00%| unknown
 66.9s|     1 |     0 | 67485 |     - |   346M |   0 |  28k|5791 |5793 |  63 | 27 | 152 |  14 | 1.722953e+06 | 1.826399e+06 |   6.00%| unknown
 67.0s|     1 |     0 | 67488 |     - |   346M |   0 |  28k|5791 |5794 |  64 | 28 | 152 |  14 | 1.722953e+06 | 1.826399e+06 |   6.00%| unknown
 time | node  | left  |LP iter|LP it/n|mem/heur|mdpt |vars |cons |rows |cuts |sepa|confs|strbr|  dualbound   | primalbound  |  gap   | compl. 
 67.0s|     1 |     2 | 67488 |     - |   346M |   0 |  28k|5791 |5794 |  64 | 28 | 152 |  14 | 1.722953e+06 | 1.826399e+06 |   6.00%| unknown
(run 2, node 1) restarting after 2 global fixings of integer variables

(restart) converted 43 cuts from the global cut pool into linear constraints

presolving:
(round 1, fast)       1284 del vars, 240 del conss, 0 add conss, 1282 chg bounds, 0 chg sides, 0 chg coeffs, 0 upgd conss, 32050 impls, 1 clqs
(round 2, fast)       1284 del vars, 256 del conss, 0 add conss, 1282 chg bounds, 0 chg sides, 0 chg coeffs, 0 upgd conss, 32050 impls, 1 clqs
   (67.1s) running MILP presolver
   (67.1s) MILP presolver found nothing
presolving (3 rounds: 3 fast, 1 medium, 1 exhaustive):
 1284 deleted vars, 256 deleted constraints, 0 added constraints, 1282 tightened bounds, 0 added holes, 0 changed sides, 0 changed coefficients
 32050 implications, 1 cliques
presolved problem has 26964 variables (42 bin, 0 int, 0 impl, 26922 cont) and 5578 constraints
      1 constraints of type <setppc>
   5577 constraints of type <linear>
Presolving Time: 1.33
transformed 3/4 original solutions to the transformed problem space

 time | node  | left  |LP iter|LP it/n|mem/heur|mdpt |vars |cons |rows |cuts |sepa|confs|strbr|  dualbound   | primalbound  |  gap   | compl. 
 71.8s|     1 |     0 | 80333 |     - |   350M |   0 |  26k|5578 |5576 |   0 |  0 | 152 |  14 | 1.722953e+06 | 1.826399e+06 |   6.00%| unknown
 72.4s|     1 |     0 | 80506 |     - |   352M |   0 |  26k|5578 |5579 |   3 |  1 | 152 |  14 | 1.722953e+06 | 1.826399e+06 |   6.00%| unknown
 72.8s|     1 |     0 | 80656 |     - |   352M |   0 |  26k|5578 |5582 |   6 |  2 | 152 |  14 | 1.722953e+06 | 1.826399e+06 |   6.00%| unknown
 73.2s|     1 |     0 | 80752 |     - |   353M |   0 |  26k|5578 |5583 |   7 |  3 | 152 |  14 | 1.722953e+06 | 1.826399e+06 |   6.00%| unknown
 73.7s|     1 |     0 | 80856 |     - |   353M |   0 |  26k|5578 |5584 |   8 |  4 | 152 |  14 | 1.722953e+06 | 1.826399e+06 |   6.00%| unknown
 74.1s|     1 |     0 | 80983 |     - |   354M |   0 |  26k|5578 |5585 |   9 |  5 | 152 |  14 | 1.722953e+06 | 1.826399e+06 |   6.00%| unknown
 74.4s|     1 |     0 | 81071 |     - |   355M |   0 |  26k|5578 |5586 |  10 |  6 | 152 |  14 | 1.722953e+06 | 1.826399e+06 |   6.00%| unknown
 74.9s|     1 |     0 | 81197 |     - |   355M |   0 |  26k|5578 |5587 |  11 |  7 | 152 |  14 | 1.722953e+06 | 1.826399e+06 |   6.00%| unknown
 75.2s|     1 |     0 | 81241 |     - |   356M |   0 |  26k|5578 |5588 |  12 |  8 | 152 |  14 | 1.722953e+06 | 1.826399e+06 |   6.00%| unknown
 75.6s|     1 |     0 | 81360 |     - |   356M |   0 |  26k|5578 |5589 |  13 |  9 | 152 |  14 | 1.722953e+06 | 1.826399e+06 |   6.00%| unknown
 76.0s|     1 |     0 | 81451 |     - |   357M |   0 |  26k|5578 |5590 |  14 | 10 | 152 |  14 | 1.722953e+06 | 1.826399e+06 |   6.00%| unknown
 76.4s|     1 |     0 | 81611 |     - |   358M |   0 |  26k|5578 |5591 |  15 | 11 | 152 |  14 | 1.722953e+06 | 1.826399e+06 |   6.00%| unknown
 81.2s|     1 |     2 | 86637 |     - |   359M |   0 |  26k|5578 |5591 |  15 | 11 | 152 |  16 | 1.725677e+06 | 1.826399e+06 |   5.84%| unknown

SCIP Status        : problem is solved [optimal solution found]
Solving Time (sec) : 86.78
Solving Nodes      : 7 (total of 9 nodes in 3 runs)
Primal Bound       : +1.82639896900000e+06 (5 solutions)
Dual Bound         : +1.82639896900000e+06
Gap                : 0.00 %
Solve Status: optimal
Solve Time: 86.79 seconds
